maximize
obj: -103 x_1_ - 51 x_2_ - 60 x_3_ - 92 x_4_ + 443 x_5_ - 173 x_6_ + 571 x_7_ - 165 x_8_ - 137 x_9_ - 211 x_10_ + 296 x_11_ - 61 x_12_ + 435 x_13_ + 357 x_14_ + 539 x_15_ - 208 x_16_ + 324 x_17_ + 384 x_18_ + 675 x_19_ - 80 x_20_ - 17 x_21_ + 320 x_22_ + 610 x_23_ - 257 x_24_ + 325 x_25_ + 363 x_26_ + 406 x_27_ + 441 x_28_ + 489 x_29_ - 87 x_30_ - 137 x_31_ - 64 x_32_ - 164 x_33_ - 38 x_34_ + 330 x_35_ + 451 x_36_ + 707 x_37_ - 89 x_38_ - 185 x_39_ - 7 x_40_ + 327 x_41_ + 685 x_42_ + 723 x_43_ + 453 x_44_ + 628 x_45_ + 609 x_46_ - 32 x_47_ - 126 x_48_ - 43 x_49_ + 434 x_50_ - 49 x_51_ - 71 x_52_ - 157 x_53_ - 142 x_54_ - 178 x_55_ + 268 x_56_ - 47 x_57_ - 1 x_58_ - 245 x_59_ - 102 x_60_ + 273 x_61_ + 369 x_62_ - 39 x_63_ - 5 x_64_ - 170 x_65_ + 628 x_66_ - 244 x_67_ - 2 x_68_ - 159 x_69_ + 292 x_70_ - 1 x_71_ - 135 x_72_ + 358 x_73_ - 5 x_74_ - 97 x_75_ + 377 x_76_ + 440 x_77_ + 304 x_78_ + 601 x_79_ - 52 x_80_ - 209 x_81_ + 347 x_82_ - 139 x_83_ - 75 x_84_ + 472 x_85_ + 526 x_86_ + 291 x_87_ + 554 x_88_ + 445 x_89_ + 426 x_90_ - 34 x_91_ - 128 x_92_ - 151 x_93_ + 507 x_94_ + 834 x_95_ + 404 x_96_ + 513 x_97_ + 387 x_98_ - 5 x_99_ - 160 x_100_ - 31 x_101_ + 398 x_102_ + 297 x_103_ - 109 x_104_ - 221 x_105_ + 421 x_106_ - 217 x_107_ + 615 x_108_ + 332 x_109_ + 259 x_110_ + 257 x_111_ - 125 x_112_ - 74 x_113_ - 69 x_114_ - 143 x_115_ - 109 x_116_ + 410 x_117_ + 329 x_118_ + 334 x_119_ + 494 x_120_ + 453 x_121_ + 530 x_122_ + 771 x_123_ - 232 x_124_ + 607 x_125_ - 241 x_126_ - 43 x_127_ - 74 x_128_ + 457 x_129_ + 666 x_130_ + 378 x_131_ - 56 x_132_ + 428 x_133_ + 389 x_134_ + 386 x_135_ + 651 x_136_ + 335 x_137_ + 772 x_138_ - 167 x_139_ + 335 x_140_ - 165 x_141_ + 258 x_142_ + 565 x_143_ - 226 x_144_ + 529 x_145_ - 136 x_146_ - 84 x_147_ - 77 x_148_ + 367 x_149_ - 39 x_150_ + 552 x_151_ - 36 x_152_ - 113 x_153_ - 225 x_154_ - 26 x_155_ - 54 x_156_ - 90 x_157_ - 154 x_158_ - 296 x_159_ - 8 x_160_ - 97 x_161_ - 26 x_162_ + 433 x_163_ + 558 x_164_ + 824 x_165_ - 42 x_166_ - 45 x_167_ + 491 x_168_ + 468 x_169_ + 393 x_170_ + 500 x_171_ - 207 x_172_ + 416 x_173_ + 334 x_174_ + 485 x_175_ + 553 x_176_ - 181 x_177_ + 251 x_178_ + 254 x_179_ - 107 x_180_ - 164 x_181_ + 554 x_182_ - 74 x_183_ - 157 x_184_ + 636 x_185_ + 663 x_186_ - 111 x_187_ - 82 x_188_ + 328 x_189_ + 303 x_190_ - 219 x_191_ + 621 x_192_ - 292 x_193_ - 10 x_194_ - 31 x_195_ + 260 x_196_ + 629 x_197_ + 379 x_198_ - 80 x_199_ + 449 x_200_ - 121 x_201_ - 179 x_202_ - 155 x_203_ + 588 x_204_ - 21 x_205_ + 442 x_206_ - 45 x_207_ - 180 x_208_ - 244 x_209_ + 545 x_210_ + 299 x_211_ - 107 x_212_ + 530 x_213_ - 14 x_214_ - 195 x_215_ - 31 x_216_ - 190 x_217_ - 221 x_218_ - 74 x_219_ - 180 x_220_ - 18 x_221_ + 609 x_222_ - 177 x_223_ + 354 x_224_ + 374 x_225_ + 317 x_226_ - 59 x_227_ + 271 x_228_ + 299 x_229_ + 599 x_230_ - 182 x_231_ - 206 x_232_ + 817 x_233_ - 119 x_234_ - 148 x_235_ + 314 x_236_ + 673 x_237_ + 287 x_238_ + 410 x_239_ + 716 x_240_ + 632 x_241_ - 45 x_242_ + 359 x_243_ + 579 x_244_ + 740 x_245_ - 193 x_246_ - 14 x_247_ + 354 x_248_ - 109 x_249_ + 507 x_250_ + 1000 s_1_ + 1000 s_2_ + 1000 s_3_ + 1000 s_4_ + 1000 s_5_ - 1000 ss_1_ - 1000 ss_2_ - 1000 ss_3_ - 1000 ss_4_ - 1000 ss_5_
subject to
c6: 1 s_1_ + 392 x_1_ + 713 x_2_ + 701 x_3_ + 366 x_4_ + 7 x_5_ + 241 x_6_ + 356 x_7_ + 252 x_8_ + 783 x_9_ + 598 x_10_ + 822 x_11_ + 205 x_12_ + 29 x_13_ + 817 x_14_ + 620 x_15_ + 743 x_16_ + 857 x_17_ + 915 x_18_ + 652 x_19_ + 574 x_20_ + 853 x_21_ + 372 x_22_ + 130 x_23_ + 157 x_24_ + 838 x_25_ + 756 x_26_ + 838 x_27_ + 337 x_28_ + 285 x_29_ + 130 x_30_ + 620 x_31_ + 531 x_32_ + 346 x_33_ + 256 x_34_ + 206 x_35_ + 841 x_36_ + 772 x_37_ + 826 x_38_ + 401 x_39_ + 857 x_40_ + 35 x_41_ + 691 x_42_ + 834 x_43_ + 693 x_44_ + 954 x_45_ + 54 x_46_ + 207 x_47_ + 749 x_48_ + 133 x_49_ + 853 x_50_ + 109 x_51_ + 367 x_52_ + 503 x_53_ + 60 x_54_ + 389 x_55_ + 759 x_56_ + 48 x_57_ + 186 x_58_ + 230 x_59_ + 486 x_60_ + 944 x_61_ + 829 x_62_ + 176 x_63_ + 388 x_64_ + 711 x_65_ + 898 x_66_ + 605 x_67_ + 166 x_68_ + 384 x_69_ + 919 x_70_ + 72 x_71_ + 373 x_72_ + 992 x_73_ + 281 x_74_ + 11 x_75_ + 476 x_76_ + 59 x_77_ + 196 x_78_ + 994 x_79_ + 880 x_80_ + 929 x_81_ + 790 x_82_ + 953 x_83_ + 597 x_84_ + 642 x_85_ + 938 x_86_ + 942 x_87_ + 988 x_88_ + 407 x_89_ + 174 x_90_ + 630 x_91_ + 710 x_92_ + 676 x_93_ + 379 x_94_ + 480 x_95_ + 999 x_96_ + 663 x_97_ + 736 x_98_ + 179 x_99_ + 107 x_100_ + 145 x_101_ + 853 x_102_ + 521 x_103_ + 34 x_104_ + 79 x_105_ + 664 x_106_ + 681 x_107_ + 819 x_108_ + 648 x_109_ + 218 x_110_ + 701 x_111_ + 769 x_112_ + 723 x_113_ + 566 x_114_ + 903 x_115_ + 832 x_116_ + 920 x_117_ + 967 x_118_ + 652 x_119_ + 990 x_120_ + 491 x_121_ + 751 x_122_ + 959 x_123_ + 761 x_124_ + 512 x_125_ + 303 x_126_ + 884 x_127_ + 828 x_128_ + 450 x_129_ + 729 x_130_ + 88 x_131_ + 570 x_132_ + 513 x_133_ + 286 x_134_ + 323 x_135_ + 590 x_136_ + 255 x_137_ + 841 x_138_ + 51 x_139_ + 424 x_140_ + 249 x_141_ + 416 x_142_ + 543 x_143_ + 640 x_144_ + 765 x_145_ + 798 x_146_ + 329 x_147_ + 152 x_148_ + 672 x_149_ + 194 x_150_ + 648 x_151_ + 195 x_152_ + 949 x_153_ + 349 x_154_ + 16 x_155_ + 599 x_156_ + 636 x_157_ + 902 x_158_ + 235 x_159_ + 627 x_160_ + 160 x_161_ + 774 x_162_ + 372 x_163_ + 273 x_164_ + 935 x_165_ + 354 x_166_ + 391 x_167_ + 459 x_168_ + 88 x_169_ + 443 x_170_ + 746 x_171_ + 508 x_172_ + 774 x_173_ + 871 x_174_ + 769 x_175_ + 309 x_176_ + 214 x_177_ + 662 x_178_ + 940 x_179_ + 308 x_180_ + 922 x_181_ + 148 x_182_ + 554 x_183_ + 468 x_184_ + 499 x_185_ + 337 x_186_ + 482 x_187_ + 392 x_188_ + 761 x_189_ + 802 x_190_ + 878 x_191_ + 276 x_192_ + 418 x_193_ + 166 x_194_ + 718 x_195_ + 841 x_196_ + 547 x_197_ + 280 x_198_ + 597 x_199_ + 415 x_200_ + 218 x_201_ + 807 x_202_ + 269 x_203_ + 495 x_204_ + 128 x_205_ + 983 x_206_ + 355 x_207_ + 488 x_208_ + 463 x_209_ + 805 x_210_ + 635 x_211_ + 870 x_212_ + 382 x_213_ + 212 x_214_ + 26 x_215_ + 961 x_216_ + 167 x_217_ + 483 x_218_ + 149 x_219_ + 587 x_220_ + 749 x_221_ + 643 x_222_ + 189 x_223_ + 783 x_224_ + 455 x_225_ + 137 x_226_ + 927 x_227_ + 178 x_228_ + 406 x_229_ + 304 x_230_ + 612 x_231_ + 523 x_232_ + 821 x_233_ + 132 x_234_ + 237 x_235_ + 786 x_236_ + 669 x_237_ + 398 x_238_ + 773 x_239_ + 945 x_240_ + 510 x_241_ + 43 x_242_ + 652 x_243_ + 541 x_244_ + 989 x_245_ + 19 x_246_ + 215 x_247_ + 723 x_248_ + 584 x_249_ + 722 x_250_ <= 65908
c7: 1 s_2_ + 457 x_1_ + 538 x_2_ + 386 x_3_ + 848 x_4_ + 271 x_5_ + 212 x_6_ + 271 x_7_ + 552 x_8_ + 214 x_9_ + 92 x_10_ + 22 x_11_ + 219 x_12_ + 69 x_13_ + 743 x_14_ + 682 x_15_ + 91 x_16_ + 914 x_17_ + 755 x_18_ + 911 x_19_ + 551 x_20_ + 62 x_21_ + 576 x_22_ + 661 x_23_ + 57 x_24_ + 880 x_25_ + 536 x_26_ + 598 x_27_ + 984 x_28_ + 538 x_29_ + 856 x_30_ + 150 x_31_ + 390 x_32_ + 261 x_33_ + 411 x_34_ + 215 x_35_ + 393 x_36_ + 797 x_37_ + 755 x_38_ + 474 x_39_ + 211 x_40_ + 140 x_41_ + 207 x_42_ + 365 x_43_ + 600 x_44_ + 400 x_45_ + 395 x_46_ + 120 x_47_ + 219 x_48_ + 676 x_49_ + 755 x_50_ + 589 x_51_ + 959 x_52_ + 455 x_53_ + 333 x_54_ + 594 x_55_ + 766 x_56_ + 854 x_57_ + 584 x_58_ + 520 x_59_ + 76 x_60_ + 906 x_61_ + 361 x_62_ + 873 x_63_ + 760 x_64_ + 226 x_65_ + 744 x_66_ + 396 x_67_ + 271 x_68_ + 863 x_69_ + 196 x_70_ + 512 x_71_ + 313 x_72_ + 145 x_73_ + 819 x_74_ + 90 x_75_ + 40 x_76_ + 764 x_77_ + 391 x_78_ + 831 x_79_ + 988 x_80_ + 314 x_81_ + 882 x_82_ + 127 x_83_ + 624 x_84_ + 215 x_85_ + 599 x_86_ + 223 x_87_ + 186 x_88_ + 688 x_89_ + 318 x_90_ + 757 x_91_ + 581 x_92_ + 729 x_93_ + 62 x_94_ + 834 x_95_ + 271 x_96_ + 736 x_97_ + 655 x_98_ + 618 x_99_ + 794 x_100_ + 132 x_101_ + 911 x_102_ + 370 x_103_ + 762 x_104_ + 621 x_105_ + 968 x_106_ + 309 x_107_ + 218 x_108_ + 354 x_109_ + 467 x_110_ + 743 x_111_ + 39 x_112_ + 965 x_113_ + 207 x_114_ + 406 x_115_ + 634 x_116_ + 640 x_117_ + 280 x_118_ + 603 x_119_ + 270 x_120_ + 443 x_121_ + 648 x_122_ + 765 x_123_ + 270 x_124_ + 981 x_125_ + 911 x_126_ + 416 x_127_ + 228 x_128_ + 982 x_129_ + 937 x_130_ + 951 x_131_ + 56 x_132_ + 765 x_133_ + 171 x_134_ + 335 x_135_ + 327 x_136_ + 999 x_137_ + 902 x_138_ + 823 x_139_ + 295 x_140_ + 90 x_141_ + 487 x_142_ + 696 x_143_ + 411 x_144_ + 949 x_145_ + 244 x_146_ + 225 x_147_ + 92 x_148_ + 752 x_149_ + 175 x_150_ + 559 x_151_ + 906 x_152_ + 762 x_153_ + 464 x_154_ + 686 x_155_ + 229 x_156_ + 294 x_157_ + 915 x_158_ + 307 x_159_ + 174 x_160_ + 341 x_161_ + 591 x_162_ + 925 x_163_ + 171 x_164_ + 650 x_165_ + 306 x_166_ + 71 x_167_ + 711 x_168_ + 896 x_169_ + 613 x_170_ + 350 x_171_ + 286 x_172_ + 924 x_173_ + 675 x_174_ + 298 x_175_ + 313 x_176_ + 161 x_177_ + 248 x_178_ + 839 x_179_ + 654 x_180_ + 71 x_181_ + 443 x_182_ + 521 x_183_ + 613 x_184_ + 235 x_185_ + 860 x_186_ + 122 x_187_ + 98 x_188_ + 173 x_189_ + 212 x_190_ + 571 x_191_ + 749 x_192_ + 533 x_193_ + 127 x_194_ + 291 x_195_ + 571 x_196_ + 474 x_197_ + 2 x_198_ + 242 x_199_ + 18 x_200_ + 575 x_201_ + 300 x_202_ + 604 x_203_ + 687 x_204_ + 303 x_205_ + 78 x_206_ + 462 x_207_ + 888 x_208_ + 914 x_209_ + 987 x_210_ + 730 x_211_ + 225 x_212_ + 687 x_213_ + 70 x_214_ + 227 x_215_ + 847 x_216_ + 263 x_217_ + 909 x_218_ + 592 x_219_ + 534 x_220_ + 546 x_221_ + 65 x_222_ + 272 x_223_ + 298 x_224_ + 693 x_225_ + 34 x_226_ + 489 x_227_ + 935 x_228_ + 423 x_229_ + 309 x_230_ + 424 x_231_ + 57 x_232_ + 878 x_233_ + 445 x_234_ + 216 x_235_ + 547 x_236_ + 940 x_237_ + 874 x_238_ + 243 x_239_ + 913 x_240_ + 400 x_241_ + 668 x_242_ + 530 x_243_ + 564 x_244_ + 878 x_245_ + 398 x_246_ + 252 x_247_ + 465 x_248_ + 662 x_249_ + 659 x_250_ <= 61671
c8: 1 s_3_ + 840 x_1_ + 976 x_2_ + 373 x_3_ + 793 x_4_ + 618 x_5_ + 332 x_6_ + 70 x_7_ + 776 x_8_ + 111 x_9_ + 32 x_10_ + 174 x_11_ + 633 x_12_ + 658 x_13_ + 500 x_14_ + 595 x_15_ + 430 x_16_ + 506 x_17_ + 2 x_18_ + 810 x_19_ + 830 x_20_ + 929 x_21_ + 331 x_22_ + 690 x_23_ + 477 x_24_ + 861 x_25_ + 912 x_26_ + 956 x_27_ + 364 x_28_ + 940 x_29_ + 490 x_30_ + 127 x_31_ + 902 x_32_ + 530 x_33_ + 184 x_34_ + 645 x_35_ + 846 x_36_ + 818 x_37_ + 228 x_38_ + 792 x_39_ + 489 x_40_ + 742 x_41_ + 877 x_42_ + 906 x_43_ + 207 x_44_ + 894 x_45_ + 954 x_46_ + 94 x_47_ + 153 x_48_ + 482 x_49_ + 899 x_50_ + 154 x_51_ + 305 x_52_ + 952 x_53_ + 791 x_54_ + 969 x_55_ + 572 x_56_ + 732 x_57_ + 828 x_58_ + 267 x_59_ + 801 x_60_ + 11 x_61_ + 115 x_62_ + 3 x_63_ + 870 x_64_ + 782 x_65_ + 935 x_66_ + 83 x_67_ + 31 x_68_ + 687 x_69_ + 601 x_70_ + 402 x_71_ + 125 x_72_ + 884 x_73_ + 806 x_74_ + 593 x_75_ + 624 x_76_ + 622 x_77_ + 963 x_78_ + 393 x_79_ + 252 x_80_ + 145 x_81_ + 942 x_82_ + 172 x_83_ + 253 x_84_ + 513 x_85_ + 36 x_86_ + 605 x_87_ + 627 x_88_ + 144 x_89_ + 657 x_90_ + 113 x_91_ + 827 x_92_ + 490 x_93_ + 699 x_94_ + 746 x_95_ + 843 x_96_ + 941 x_97_ + 789 x_98_ + 671 x_99_ + 211 x_100_ + 113 x_101_ + 164 x_102_ + 789 x_103_ + 540 x_104_ + 35 x_105_ + 172 x_106_ + 172 x_107_ + 602 x_108_ + 865 x_109_ + 936 x_110_ + 154 x_111_ + 809 x_112_ + 413 x_113_ + 315 x_114_ + 864 x_115_ + 288 x_116_ + 418 x_117_ + 50 x_118_ + 310 x_119_ + 752 x_120_ + 784 x_121_ + 526 x_122_ + 830 x_123_ + 691 x_124_ + 703 x_125_ + 770 x_126_ + 459 x_127_ + 237 x_128_ + 501 x_129_ + 625 x_130_ + 657 x_131_ + 915 x_132_ + 56 x_133_ + 564 x_134_ + 489 x_135_ + 870 x_136_ + 306 x_137_ + 878 x_138_ + 379 x_139_ + 454 x_140_ + 255 x_141_ + 984 x_142_ + 922 x_143_ + 646 x_144_ + 360 x_145_ + 60 x_146_ + 261 x_147_ + 548 x_148_ + 13 x_149_ + 682 x_150_ + 907 x_151_ + 36 x_152_ + 260 x_153_ + 347 x_154_ + 788 x_155_ + 537 x_156_ + 820 x_157_ + 489 x_158_ + 127 x_159_ + 515 x_160_ + 416 x_161_ + 571 x_162_ + 552 x_163_ + 728 x_164_ + 780 x_165_ + 386 x_166_ + 918 x_167_ + 691 x_168_ + 569 x_169_ + 381 x_170_ + 909 x_171_ + 316 x_172_ + 265 x_173_ + 388 x_174_ + 352 x_175_ + 564 x_176_ + 817 x_177_ + 694 x_178_ + 820 x_179_ + 63 x_180_ + 481 x_181_ + 179 x_182_ + 173 x_183_ + 311 x_184_ + 941 x_185_ + 353 x_186_ + 81 x_187_ + 29 x_188_ + 312 x_189_ + 720 x_190_ + 78 x_191_ + 583 x_192_ + 93 x_193_ + 76 x_194_ + 597 x_195_ + 592 x_196_ + 622 x_197_ + 613 x_198_ + 139 x_199_ + 554 x_200_ + 617 x_201_ + 616 x_202_ + 27 x_203_ + 684 x_204_ + 366 x_205_ + 59 x_206_ + 517 x_207_ + 107 x_208_ + 536 x_209_ + 291 x_210_ + 101 x_211_ + 458 x_212_ + 846 x_213_ + 262 x_214_ + 691 x_215_ + 386 x_216_ + 41 x_217_ + 23 x_218_ + 70 x_219_ + 495 x_220_ + 492 x_221_ + 957 x_222_ + 592 x_223_ + 320 x_224_ + 629 x_225_ + 371 x_226_ + 831 x_227_ + 44 x_228_ + 757 x_229_ + 629 x_230_ + 329 x_231_ + 757 x_232_ + 696 x_233_ + 143 x_234_ + 957 x_235_ + 950 x_236_ + 941 x_237_ + 78 x_238_ + 833 x_239_ + 260 x_240_ + 958 x_241_ + 10 x_242_ + 855 x_243_ + 949 x_244_ + 669 x_245_ + 282 x_246_ + 230 x_247_ + 43 x_248_ + 306 x_249_ + 390 x_250_ <= 63763
c9: 1 s_4_ + 378 x_1_ + 87 x_2_ + 974 x_3_ + 635 x_4_ + 292 x_5_ + 117 x_6_ + 574 x_7_ + 705 x_8_ + 23 x_9_ + 284 x_10_ + 897 x_11_ + 755 x_12_ + 543 x_13_ + 338 x_14_ + 744 x_15_ + 235 x_16_ + 954 x_17_ + 794 x_18_ + 376 x_19_ + 228 x_20_ + 131 x_21_ + 749 x_22_ + 977 x_23_ + 724 x_24_ + 867 x_25_ + 648 x_26_ + 812 x_27_ + 224 x_28_ + 902 x_29_ + 507 x_30_ + 399 x_31_ + 37 x_32_ + 359 x_33_ + 317 x_34_ + 448 x_35_ + 583 x_36_ + 915 x_37_ + 40 x_38_ + 170 x_39_ + 645 x_40_ + 973 x_41_ + 32 x_42_ + 362 x_43_ + 942 x_44_ + 487 x_45_ + 11 x_46_ + 384 x_47_ + 20 x_48_ + 3 x_49_ + 792 x_50_ + 127 x_51_ + 925 x_52_ + 357 x_53_ + 47 x_54_ + 179 x_55_ + 393 x_56_ + 417 x_57_ + 955 x_58_ + 285 x_59_ + 311 x_60_ + 771 x_61_ + 50 x_62_ + 904 x_63_ + 333 x_64_ + 162 x_65_ + 289 x_66_ + 440 x_67_ + 571 x_68_ + 612 x_69_ + 431 x_70_ + 344 x_71_ + 775 x_72_ + 441 x_73_ + 136 x_74_ + 8 x_75_ + 847 x_76_ + 511 x_77_ + 998 x_78_ + 696 x_79_ + 105 x_80_ + 656 x_81_ + 343 x_82_ + 24 x_83_ + 986 x_84_ + 100 x_85_ + 834 x_86_ + 835 x_87_ + 759 x_88_ + 816 x_89_ + 166 x_90_ + 95 x_91_ + 95 x_92_ + 172 x_93_ + 848 x_94_ + 629 x_95_ + 429 x_96_ + 438 x_97_ + 467 x_98_ + 248 x_99_ + 767 x_100_ + 184 x_101_ + 76 x_102_ + 480 x_103_ + 232 x_104_ + 522 x_105_ + 340 x_106_ + 300 x_107_ + 525 x_108_ + 79 x_109_ + 269 x_110_ + 449 x_111_ + 418 x_112_ + 888 x_113_ + 977 x_114_ + 668 x_115_ + 162 x_116_ + 67 x_117_ + 765 x_118_ + 441 x_119_ + 584 x_120_ + 105 x_121_ + 401 x_122_ + 858 x_123_ + 369 x_124_ + 698 x_125_ + 357 x_126_ + 70 x_127_ + 30 x_128_ + 329 x_129_ + 442 x_130_ + 311 x_131_ + 970 x_132_ + 775 x_133_ + 501 x_134_ + 882 x_135_ + 703 x_136_ + 969 x_137_ + 676 x_138_ + 236 x_139_ + 665 x_140_ + 1 x_141_ + 230 x_142_ + 865 x_143_ + 440 x_144_ + 12 x_145_ + 813 x_146_ + 500 x_147_ + 142 x_148_ + 376 x_149_ + 474 x_150_ + 413 x_151_ + 716 x_152_ + 356 x_153_ + 908 x_154_ + 726 x_155_ + 788 x_156_ + 213 x_157_ + 240 x_158_ + 180 x_159_ + 87 x_160_ + 476 x_161_ + 96 x_162_ + 838 x_163_ + 452 x_164_ + 409 x_165_ + 443 x_166_ + 614 x_167_ + 125 x_168_ + 405 x_169_ + 304 x_170_ + 658 x_171_ + 426 x_172_ + 803 x_173_ + 34 x_174_ + 858 x_175_ + 666 x_176_ + 300 x_177_ + 794 x_178_ + 31 x_179_ + 477 x_180_ + 260 x_181_ + 568 x_182_ + 624 x_183_ + 482 x_184_ + 136 x_185_ + 527 x_186_ + 460 x_187_ + 713 x_188_ + 300 x_189_ + 603 x_190_ + 62 x_191_ + 640 x_192_ + 87 x_193_ + 971 x_194_ + 875 x_195_ + 118 x_196_ + 525 x_197_ + 383 x_198_ + 357 x_199_ + 754 x_200_ + 112 x_201_ + 744 x_202_ + 477 x_203_ + 601 x_204_ + 589 x_205_ + 810 x_206_ + 795 x_207_ + 376 x_208_ + 55 x_209_ + 994 x_210_ + 77 x_211_ + 424 x_212_ + 63 x_213_ + 399 x_214_ + 865 x_215_ + 531 x_216_ + 278 x_217_ + 922 x_218_ + 890 x_219_ + 599 x_220_ + 120 x_221_ + 597 x_222_ + 348 x_223_ + 514 x_224_ + 793 x_225_ + 669 x_226_ + 776 x_227_ + 808 x_228_ + 444 x_229_ + 543 x_230_ + 782 x_231_ + 396 x_232_ + 936 x_233_ + 340 x_234_ + 142 x_235_ + 381 x_236_ + 577 x_237_ + 660 x_238_ + 196 x_239_ + 403 x_240_ + 311 x_241_ + 843 x_242_ + 295 x_243_ + 870 x_244_ + 544 x_245_ + 526 x_246_ + 920 x_247_ + 61 x_248_ + 110 x_249_ + 652 x_250_ <= 59793
c10: 1 s_5_ + 618 x_1_ + 143 x_2_ + 249 x_3_ + 45 x_4_ + 518 x_5_ + 780 x_6_ + 795 x_7_ + 916 x_8_ + 732 x_9_ + 224 x_10_ + 830 x_11_ + 820 x_12_ + 249 x_13_ + 109 x_14_ + 221 x_15_ + 99 x_16_ + 475 x_17_ + 126 x_18_ + 933 x_19_ + 897 x_20_ + 109 x_21_ + 131 x_22_ + 897 x_23_ + 367 x_24_ + 411 x_25_ + 639 x_26_ + 344 x_27_ + 255 x_28_ + 493 x_29_ + 291 x_30_ + 224 x_31_ + 103 x_32_ + 619 x_33_ + 672 x_34_ + 374 x_35_ + 285 x_36_ + 813 x_37_ + 599 x_38_ + 21 x_39_ + 34 x_40_ + 239 x_41_ + 777 x_42_ + 762 x_43_ + 158 x_44_ + 806 x_45_ + 501 x_46_ + 809 x_47_ + 551 x_48_ + 70 x_49_ + 669 x_50_ + 633 x_51_ + 113 x_52_ + 199 x_53_ + 191 x_54_ + 376 x_55_ + 180 x_56_ + 459 x_57_ + 492 x_58_ + 215 x_59_ + 328 x_60_ + 208 x_61_ + 219 x_62_ + 243 x_63_ + 786 x_64_ + 173 x_65_ + 683 x_66_ + 65 x_67_ + 323 x_68_ + 391 x_69_ + 378 x_70_ + 198 x_71_ + 701 x_72_ + 633 x_73_ + 40 x_74_ + 969 x_75_ + 405 x_76_ + 957 x_77_ + 267 x_78_ + 802 x_79_ + 118 x_80_ + 126 x_81_ + 169 x_82_ + 607 x_83_ + 804 x_84_ + 352 x_85_ + 303 x_86_ + 570 x_87_ + 259 x_88_ + 774 x_89_ + 284 x_90_ + 556 x_91_ + 3 x_92_ + 681 x_93_ + 397 x_94_ + 984 x_95_ + 500 x_96_ + 97 x_97_ + 71 x_98_ + 303 x_99_ + 217 x_100_ + 870 x_101_ + 614 x_102_ + 479 x_103_ + 958 x_104_ + 555 x_105_ + 759 x_106_ + 755 x_107_ + 921 x_108_ + 127 x_109_ + 815 x_110_ + 568 x_111_ + 586 x_112_ + 147 x_113_ + 491 x_114_ + 125 x_115_ + 746 x_116_ + 914 x_117_ + 436 x_118_ + 568 x_119_ + 940 x_120_ + 836 x_121_ + 112 x_122_ + 648 x_123_ + 510 x_124_ + 449 x_125_ + 162 x_126_ + 598 x_127_ + 479 x_128_ + 350 x_129_ + 900 x_130_ + 187 x_131_ + 693 x_132_ + 321 x_133_ + 282 x_134_ + 888 x_135_ + 901 x_136_ + 715 x_137_ + 542 x_138_ + 375 x_139_ + 810 x_140_ + 731 x_141_ + 642 x_142_ + 973 x_143_ + 329 x_144_ + 477 x_145_ + 202 x_146_ + 572 x_147_ + 922 x_148_ + 148 x_149_ + 645 x_150_ + 954 x_151_ + 383 x_152_ + 589 x_153_ + 167 x_154_ + 419 x_155_ + 290 x_156_ + 503 x_157_ + 169 x_158_ + 199 x_159_ + 9 x_160_ + 123 x_161_ + 171 x_162_ + 155 x_163_ + 992 x_164_ + 968 x_165_ + 446 x_166_ + 336 x_167_ + 522 x_168_ + 899 x_169_ + 468 x_170_ + 662 x_171_ + 383 x_172_ + 337 x_173_ + 28 x_174_ + 143 x_175_ + 549 x_176_ + 460 x_177_ + 198 x_178_ + 283 x_179_ + 294 x_180_ + 311 x_181_ + 699 x_182_ + 343 x_183_ + 645 x_184_ + 657 x_185_ + 882 x_186_ + 140 x_187_ + 528 x_188_ + 523 x_189_ + 322 x_190_ + 161 x_191_ + 739 x_192_ + 754 x_193_ + 283 x_194_ + 600 x_195_ + 795 x_196_ + 795 x_197_ + 419 x_198_ + 841 x_199_ + 405 x_200_ + 730 x_201_ + 249 x_202_ + 96 x_203_ + 930 x_204_ + 201 x_205_ + 35 x_206_ + 239 x_207_ + 572 x_208_ + 121 x_209_ + 848 x_210_ + 404 x_211_ + 565 x_212_ + 809 x_213_ + 989 x_214_ + 312 x_215_ + 68 x_216_ + 897 x_217_ + 16 x_218_ + 501 x_219_ + 846 x_220_ + 109 x_221_ + 310 x_222_ + 892 x_223_ + 909 x_224_ + 114 x_225_ + 805 x_226_ + 257 x_227_ + 292 x_228_ + 171 x_229_ + 600 x_230_ + 376 x_231_ + 494 x_232_ + 600 x_233_ + 534 x_234_ + 573 x_235_ + 946 x_236_ + 339 x_237_ + 746 x_238_ + 380 x_239_ + 855 x_240_ + 714 x_241_ + 688 x_242_ + 492 x_243_ + 879 x_244_ + 508 x_245_ + 156 x_246_ + 5 x_247_ + 661 x_248_ + 772 x_249_ + 570 x_250_ <= 59747
c1: 1 ss_1_ + 556 x_1_ + 125 x_2_ + 736 x_3_ + 557 x_4_ + 301 x_5_ + 6 x_6_ + 111 x_7_ + 16 x_8_ + 704 x_9_ + 952 x_10_ + 408 x_11_ + 492 x_12_ + 163 x_13_ + 938 x_14_ + 315 x_15_ + 949 x_16_ + 670 x_17_ + 1000 x_18_ + 457 x_19_ + 816 x_20_ + 357 x_21_ + 495 x_22_ + 916 x_23_ + 852 x_24_ + 614 x_25_ + 161 x_26_ + 60 x_27_ + 382 x_28_ + 373 x_29_ + 570 x_30_ + 182 x_31_ + 934 x_32_ + 129 x_33_ + 542 x_34_ + 767 x_35_ + 964 x_36_ + 896 x_37_ + 350 x_38_ + 178 x_39_ + 557 x_40_ + 975 x_41_ + 70 x_42_ + 226 x_43_ + 356 x_44_ + 404 x_45_ + 79 x_46_ + 833 x_47_ + 616 x_48_ + 575 x_49_ + 987 x_50_ + 340 x_51_ + 794 x_52_ + 321 x_53_ + 337 x_54_ + 580 x_55_ + 920 x_56_ + 425 x_57_ + 170 x_58_ + 955 x_59_ + 581 x_60_ + 739 x_61_ + 622 x_62_ + 473 x_63_ + 789 x_64_ + 946 x_65_ + 499 x_66_ + 666 x_67_ + 546 x_68_ + 630 x_69_ + 997 x_70_ + 462 x_71_ + 750 x_72_ + 841 x_73_ + 795 x_74_ + 2 x_75_ + 522 x_76_ + 778 x_77_ + 42 x_78_ + 714 x_79_ + 645 x_80_ + 855 x_81_ + 396 x_82_ + 768 x_83_ + 392 x_84_ + 141 x_85_ + 544 x_86_ + 847 x_87_ + 263 x_88_ + 325 x_89_ + 227 x_90_ + 765 x_91_ + 128 x_92_ + 10 x_93_ + 973 x_94_ + 162 x_95_ + 743 x_96_ + 208 x_97_ + 223 x_98_ + 981 x_99_ + 143 x_100_ + 638 x_101_ + 612 x_102_ + 184 x_103_ + 738 x_104_ + 124 x_105_ + 139 x_106_ + 910 x_107_ + 611 x_108_ + 332 x_109_ + 588 x_110_ + 634 x_111_ + 484 x_112_ + 555 x_113_ + 932 x_114_ + 55 x_115_ + 434 x_116_ + 396 x_117_ + 61 x_118_ + 23 x_119_ + 491 x_120_ + 171 x_121_ + 219 x_122_ + 310 x_123_ + 569 x_124_ + 181 x_125_ + 866 x_126_ + 378 x_127_ + 354 x_128_ + 600 x_129_ + 237 x_130_ + 742 x_131_ + 631 x_132_ + 275 x_133_ + 83 x_134_ + 601 x_135_ + 167 x_136_ + 951 x_137_ + 771 x_138_ + 731 x_139_ + 474 x_140_ + 166 x_141_ + 795 x_142_ + 659 x_143_ + 638 x_144_ + 15 x_145_ + 344 x_146_ + 230 x_147_ + 395 x_148_ + 577 x_149_ + 670 x_150_ + 807 x_151_ + 494 x_152_ + 420 x_153_ + 501 x_154_ + 862 x_155_ + 940 x_156_ + 974 x_157_ + 735 x_158_ + 991 x_159_ + 748 x_160_ + 795 x_161_ + 120 x_162_ + 938 x_163_ + 983 x_164_ + 792 x_165_ + 430 x_166_ + 647 x_167_ + 497 x_168_ + 59 x_169_ + 890 x_170_ + 991 x_171_ + 810 x_172_ + 759 x_173_ + 588 x_174_ + 627 x_175_ + 59 x_176_ + 328 x_177_ + 386 x_178_ + 902 x_179_ + 650 x_180_ + 629 x_181_ + 35 x_182_ + 510 x_183_ + 143 x_184_ + 103 x_185_ + 164 x_186_ + 788 x_187_ + 62 x_188_ + 73 x_189_ + 720 x_190_ + 379 x_191_ + 641 x_192_ + 573 x_193_ + 895 x_194_ + 783 x_195_ + 909 x_196_ + 310 x_197_ + 829 x_198_ + 38 x_199_ + 231 x_200_ + 700 x_201_ + 155 x_202_ + 342 x_203_ + 605 x_204_ + 533 x_205_ + 231 x_206_ + 681 x_207_ + 540 x_208_ + 300 x_209_ + 389 x_210_ + 205 x_211_ + 748 x_212_ + 855 x_213_ + 420 x_214_ + 69 x_215_ + 931 x_216_ + 523 x_217_ + 458 x_218_ + 311 x_219_ + 678 x_220_ + 669 x_221_ + 327 x_222_ + 887 x_223_ + 85 x_224_ + 130 x_225_ + 679 x_226_ + 177 x_227_ + 564 x_228_ + 103 x_229_ + 826 x_230_ + 110 x_231_ + 314 x_232_ + 623 x_233_ + 865 x_234_ + 985 x_235_ + 550 x_236_ + 69 x_237_ + 536 x_238_ + 61 x_239_ + 375 x_240_ + 511 x_241_ + 968 x_242_ + 331 x_243_ + 132 x_244_ + 493 x_245_ + 892 x_246_ + 688 x_247_ + 715 x_248_ + 307 x_249_ + 849 x_250_ >= 64211
c2: 1 ss_2_ + 413 x_1_ + 794 x_2_ + 494 x_3_ + 821 x_4_ + 348 x_5_ + 961 x_6_ + 63 x_7_ + 962 x_8_ + 799 x_9_ + 242 x_10_ + 352 x_11_ + 337 x_12_ + 111 x_13_ + 559 x_14_ + 889 x_15_ + 595 x_16_ + 914 x_17_ + 576 x_18_ + 312 x_19_ + 323 x_20_ + 153 x_21_ + 888 x_22_ + 287 x_23_ + 627 x_24_ + 888 x_25_ + 634 x_26_ + 424 x_27_ + 365 x_28_ + 374 x_29_ + 85 x_30_ + 650 x_31_ + 265 x_32_ + 711 x_33_ + 204 x_34_ + 816 x_35_ + 595 x_36_ + 111 x_37_ + 707 x_38_ + 774 x_39_ + 138 x_40_ + 687 x_41_ + 131 x_42_ + 279 x_43_ + 775 x_44_ + 191 x_45_ + 217 x_46_ + 181 x_47_ + 750 x_48_ + 890 x_49_ + 776 x_50_ + 484 x_51_ + 655 x_52_ + 662 x_53_ + 662 x_54_ + 995 x_55_ + 248 x_56_ + 718 x_57_ + 321 x_58_ + 533 x_59_ + 391 x_60_ + 81 x_61_ + 253 x_62_ + 879 x_63_ + 540 x_64_ + 959 x_65_ + 118 x_66_ + 989 x_67_ + 781 x_68_ + 678 x_69_ + 787 x_70_ + 424 x_71_ + 721 x_72_ + 623 x_73_ + 833 x_74_ + 986 x_75_ + 141 x_76_ + 66 x_77_ + 983 x_78_ + 449 x_79_ + 654 x_80_ + 458 x_81_ + 675 x_82_ + 515 x_83_ + 718 x_84_ + 486 x_85_ + 881 x_86_ + 726 x_87_ + 386 x_88_ + 796 x_89_ + 229 x_90_ + 398 x_91_ + 335 x_92_ + 624 x_93_ + 283 x_94_ + 182 x_95_ + 589 x_96_ + 153 x_97_ + 945 x_98_ + 272 x_99_ + 849 x_100_ + 23 x_101_ + 833 x_102_ + 598 x_103_ + 892 x_104_ + 392 x_105_ + 509 x_106_ + 154 x_107_ + 56 x_108_ + 253 x_109_ + 683 x_110_ + 691 x_111_ + 744 x_112_ + 849 x_113_ + 588 x_114_ + 842 x_115_ + 417 x_116_ + 414 x_117_ + 173 x_118_ + 986 x_119_ + 750 x_120_ + 189 x_121_ + 55 x_122_ + 41 x_123_ + 462 x_124_ + 786 x_125_ + 749 x_126_ + 540 x_127_ + 945 x_128_ + 227 x_129_ + 969 x_130_ + 14 x_131_ + 916 x_132_ + 608 x_133_ + 624 x_134_ + 125 x_135_ + 70 x_136_ + 948 x_137_ + 973 x_138_ + 638 x_139_ + 67 x_140_ + 256 x_141_ + 938 x_142_ + 555 x_143_ + 194 x_144_ + 60 x_145_ + 667 x_146_ + 673 x_147_ + 374 x_148_ + 157 x_149_ + 776 x_150_ + 75 x_151_ + 371 x_152_ + 495 x_153_ + 404 x_154_ + 829 x_155_ + 876 x_156_ + 687 x_157_ + 556 x_158_ + 438 x_159_ + 709 x_160_ + 432 x_161_ + 293 x_162_ + 476 x_163_ + 676 x_164_ + 101 x_165_ + 757 x_166_ + 986 x_167_ + 361 x_168_ + 350 x_169_ + 355 x_170_ + 733 x_171_ + 102 x_172_ + 261 x_173_ + 595 x_174_ + 409 x_175_ + 260 x_176_ + 956 x_177_ + 299 x_178_ + 615 x_179_ + 485 x_180_ + 463 x_181_ + 272 x_182_ + 265 x_183_ + 312 x_184_ + 182 x_185_ + 271 x_186_ + 989 x_187_ + 463 x_188_ + 616 x_189_ + 361 x_190_ + 194 x_191_ + 855 x_192_ + 959 x_193_ + 24 x_194_ + 842 x_195_ + 19 x_196_ + 223 x_197_ + 298 x_198_ + 968 x_199_ + 361 x_200_ + 551 x_201_ + 227 x_202_ + 770 x_203_ + 528 x_204_ + 650 x_205_ + 26 x_206_ + 952 x_207_ + 300 x_208_ + 922 x_209_ + 536 x_210_ + 603 x_211_ + 708 x_212_ + 222 x_213_ + 229 x_214_ + 623 x_215_ + 720 x_216_ + 879 x_217_ + 862 x_218_ + 770 x_219_ + 289 x_220_ + 390 x_221_ + 753 x_222_ + 960 x_223_ + 355 x_224_ + 485 x_225_ + 567 x_226_ + 354 x_227_ + 704 x_228_ + 21 x_229_ + 100 x_230_ + 581 x_231_ + 609 x_232_ + 641 x_233_ + 503 x_234_ + 729 x_235_ + 314 x_236_ + 143 x_237_ + 984 x_238_ + 491 x_239_ + 371 x_240_ + 92 x_241_ + 862 x_242_ + 355 x_243_ + 228 x_244_ + 213 x_245_ + 624 x_246_ + 56 x_247_ + 237 x_248_ + 862 x_249_ + 335 x_250_ >= 64080
c3: 1 ss_3_ + 907 x_1_ + 447 x_2_ + 158 x_3_ + 840 x_4_ + 440 x_5_ + 413 x_6_ + 75 x_7_ + 682 x_8_ + 936 x_9_ + 933 x_10_ + 753 x_11_ + 47 x_12_ + 488 x_13_ + 649 x_14_ + 475 x_15_ + 88 x_16_ + 464 x_17_ + 50 x_18_ + 485 x_19_ + 672 x_20_ + 254 x_21_ + 171 x_22_ + 548 x_23_ + 202 x_24_ + 227 x_25_ + 673 x_26_ + 888 x_27_ + 176 x_28_ + 82 x_29_ + 811 x_30_ + 292 x_31_ + 522 x_32_ + 717 x_33_ + 592 x_34_ + 235 x_35_ + 398 x_36_ + 519 x_37_ + 987 x_38_ + 937 x_39_ + 12 x_40_ + 599 x_41_ + 414 x_42_ + 362 x_43_ + 818 x_44_ + 998 x_45_ + 654 x_46_ + 32 x_47_ + 469 x_48_ + 618 x_49_ + 781 x_50_ + 944 x_51_ + 499 x_52_ + 860 x_53_ + 216 x_54_ + 499 x_55_ + 695 x_56_ + 231 x_57_ + 776 x_58_ + 121 x_59_ + 703 x_60_ + 876 x_61_ + 260 x_62_ + 938 x_63_ + 643 x_64_ + 746 x_65_ + 967 x_66_ + 360 x_67_ + 630 x_68_ + 46 x_69_ + 555 x_70_ + 818 x_71_ + 52 x_72_ + 6 x_73_ + 331 x_74_ + 24 x_75_ + 328 x_76_ + 749 x_77_ + 206 x_78_ + 906 x_79_ + 346 x_80_ + 104 x_81_ + 415 x_82_ + 680 x_83_ + 187 x_84_ + 220 x_85_ + 255 x_86_ + 122 x_87_ + 51 x_88_ + 231 x_89_ + 536 x_90_ + 897 x_91_ + 727 x_92_ + 782 x_93_ + 113 x_94_ + 947 x_95_ + 206 x_96_ + 566 x_97_ + 738 x_98_ + 733 x_99_ + 891 x_100_ + 673 x_101_ + 435 x_102_ + 96 x_103_ + 691 x_104_ + 589 x_105_ + 157 x_106_ + 279 x_107_ + 985 x_108_ + 10 x_109_ + 49 x_110_ + 976 x_111_ + 95 x_112_ + 981 x_113_ + 71 x_114_ + 504 x_115_ + 494 x_116_ + 635 x_117_ + 702 x_118_ + 386 x_119_ + 802 x_120_ + 93 x_121_ + 877 x_122_ + 470 x_123_ + 946 x_124_ + 16 x_125_ + 736 x_126_ + 274 x_127_ + 448 x_128_ + 418 x_129_ + 337 x_130_ + 716 x_131_ + 801 x_132_ + 568 x_133_ + 306 x_134_ + 160 x_135_ + 713 x_136_ + 76 x_137_ + 360 x_138_ + 413 x_139_ + 563 x_140_ + 458 x_141_ + 397 x_142_ + 573 x_143_ + 815 x_144_ + 863 x_145_ + 992 x_146_ + 885 x_147_ + 443 x_148_ + 150 x_149_ + 365 x_150_ + 185 x_151_ + 981 x_152_ + 117 x_153_ + 937 x_154_ + 448 x_155_ + 344 x_156_ + 783 x_157_ + 895 x_158_ + 820 x_159_ + 302 x_160_ + 72 x_161_ + 890 x_162_ + 325 x_163_ + 205 x_164_ + 82 x_165_ + 977 x_166_ + 329 x_167_ + 32 x_168_ + 881 x_169_ + 267 x_170_ + 842 x_171_ + 802 x_172_ + 686 x_173_ + 747 x_174_ + 866 x_175_ + 893 x_176_ + 461 x_177_ + 838 x_178_ + 949 x_179_ + 413 x_180_ + 138 x_181_ + 271 x_182_ + 492 x_183_ + 684 x_184_ + 253 x_185_ + 290 x_186_ + 608 x_187_ + 313 x_188_ + 240 x_189_ + 471 x_190_ + 162 x_191_ + 47 x_192_ + 690 x_193_ + 495 x_194_ + 255 x_195_ + 810 x_196_ + 968 x_197_ + 84 x_198_ + 431 x_199_ + 375 x_200_ + 815 x_201_ + 67 x_202_ + 923 x_203_ + 376 x_204_ + 432 x_205_ + 758 x_206_ + 844 x_207_ + 4 x_208_ + 541 x_209_ + 906 x_210_ + 930 x_211_ + 148 x_212_ + 90 x_213_ + 531 x_214_ + 632 x_215_ + 145 x_216_ + 851 x_217_ + 749 x_218_ + 868 x_219_ + 744 x_220_ + 56 x_221_ + 365 x_222_ + 174 x_223_ + 841 x_224_ + 669 x_225_ + 709 x_226_ + 782 x_227_ + 112 x_228_ + 457 x_229_ + 627 x_230_ + 171 x_231_ + 424 x_232_ + 371 x_233_ + 213 x_234_ + 650 x_235_ + 8 x_236_ + 719 x_237_ + 254 x_238_ + 412 x_239_ + 289 x_240_ + 104 x_241_ + 258 x_242_ + 906 x_243_ + 121 x_244_ + 155 x_245_ + 205 x_246_ + 927 x_247_ + 799 x_248_ + 578 x_249_ + 201 x_250_ >= 61961
c4: 1 ss_4_ + 547 x_1_ + 399 x_2_ + 669 x_3_ + 818 x_4_ + 623 x_5_ + 164 x_6_ + 859 x_7_ + 960 x_8_ + 509 x_9_ + 365 x_10_ + 351 x_11_ + 949 x_12_ + 25 x_13_ + 197 x_14_ + 264 x_15_ + 678 x_16_ + 581 x_17_ + 500 x_18_ + 285 x_19_ + 422 x_20_ + 802 x_21_ + 200 x_22_ + 287 x_23_ + 968 x_24_ + 674 x_25_ + 379 x_26_ + 733 x_27_ + 455 x_28_ + 956 x_29_ + 967 x_30_ + 829 x_31_ + 154 x_32_ + 902 x_33_ + 240 x_34_ + 70 x_35_ + 212 x_36_ + 878 x_37_ + 160 x_38_ + 900 x_39_ + 594 x_40_ + 582 x_41_ + 365 x_42_ + 49 x_43_ + 368 x_44_ + 156 x_45_ + 68 x_46_ + 99 x_47_ + 554 x_48_ + 145 x_49_ + 319 x_50_ + 303 x_51_ + 423 x_52_ + 257 x_53_ + 348 x_54_ + 915 x_55_ + 905 x_56_ + 684 x_57_ + 562 x_58_ + 217 x_59_ + 471 x_60_ + 532 x_61_ + 334 x_62_ + 601 x_63_ + 729 x_64_ + 566 x_65_ + 886 x_66_ + 824 x_67_ + 253 x_68_ + 606 x_69_ + 618 x_70_ + 418 x_71_ + 217 x_72_ + 153 x_73_ + 725 x_74_ + 701 x_75_ + 451 x_76_ + 402 x_77_ + 372 x_78_ + 820 x_79_ + 111 x_80_ + 770 x_81_ + 205 x_82_ + 698 x_83_ + 976 x_84_ + 370 x_85_ + 449 x_86_ + 378 x_87_ + 633 x_88_ + 566 x_89_ + 240 x_90_ + 13 x_91_ + 689 x_92_ + 385 x_93_ + 319 x_94_ + 341 x_95_ + 863 x_96_ + 462 x_97_ + 630 x_98_ + 91 x_99_ + 525 x_100_ + 789 x_101_ + 927 x_102_ + 582 x_103_ + 728 x_104_ + 683 x_105_ + 915 x_106_ + 578 x_107_ + 454 x_108_ + 25 x_109_ + 187 x_110_ + 95 x_111_ + 523 x_112_ + 578 x_113_ + 599 x_114_ + 209 x_115_ + 957 x_116_ + 99 x_117_ + 626 x_118_ + 34 x_119_ + 54 x_120_ + 768 x_121_ + 220 x_122_ + 187 x_123_ + 283 x_124_ + 49 x_125_ + 86 x_126_ + 292 x_127_ + 308 x_128_ + 163 x_129_ + 786 x_130_ + 303 x_131_ + 659 x_132_ + 915 x_133_ + 34 x_134_ + 856 x_135_ + 879 x_136_ + 318 x_137_ + 227 x_138_ + 754 x_139_ + 444 x_140_ + 168 x_141_ + 828 x_142_ + 634 x_143_ + 209 x_144_ + 48 x_145_ + 378 x_146_ + 478 x_147_ + 280 x_148_ + 637 x_149_ + 366 x_150_ + 519 x_151_ + 209 x_152_ + 990 x_153_ + 623 x_154_ + 849 x_155_ + 292 x_156_ + 295 x_157_ + 655 x_158_ + 913 x_159_ + 854 x_160_ + 472 x_161_ + 14 x_162_ + 751 x_163_ + 14 x_164_ + 553 x_165_ + 461 x_166_ + 271 x_167_ + 204 x_168_ + 579 x_169_ + 339 x_170_ + 190 x_171_ + 516 x_172_ + 492 x_173_ + 84 x_174_ + 468 x_175_ + 128 x_176_ + 570 x_177_ + 309 x_178_ + 1 x_179_ + 493 x_180_ + 576 x_181_ + 285 x_182_ + 147 x_183_ + 597 x_184_ + 477 x_185_ + 250 x_186_ + 90 x_187_ + 582 x_188_ + 997 x_189_ + 429 x_190_ + 444 x_191_ + 322 x_192_ + 523 x_193_ + 883 x_194_ + 866 x_195_ + 657 x_196_ + 94 x_197_ + 125 x_198_ + 313 x_199_ + 63 x_200_ + 497 x_201_ + 967 x_202_ + 963 x_203_ + 544 x_204_ + 525 x_205_ + 445 x_206_ + 666 x_207_ + 978 x_208_ + 391 x_209_ + 745 x_210_ + 286 x_211_ + 908 x_212_ + 94 x_213_ + 137 x_214_ + 797 x_215_ + 850 x_216_ + 564 x_217_ + 975 x_218_ + 249 x_219_ + 863 x_220_ + 924 x_221_ + 364 x_222_ + 738 x_223_ + 291 x_224_ + 241 x_225_ + 573 x_226_ + 632 x_227_ + 995 x_228_ + 961 x_229_ + 190 x_230_ + 661 x_231_ + 990 x_232_ + 527 x_233_ + 700 x_234_ + 167 x_235_ + 522 x_236_ + 913 x_237_ + 518 x_238_ + 250 x_239_ + 58 x_240_ + 445 x_241_ + 81 x_242_ + 921 x_243_ + 676 x_244_ + 211 x_245_ + 112 x_246_ + 339 x_247_ + 314 x_248_ + 779 x_249_ + 16 x_250_ >= 60409
c5: 1 ss_5_ + 599 x_1_ + 63 x_2_ + 627 x_3_ + 495 x_4_ + 55 x_5_ + 314 x_6_ + 599 x_7_ + 374 x_8_ + 472 x_9_ + 554 x_10_ + 946 x_11_ + 583 x_12_ + 359 x_13_ + 675 x_14_ + 87 x_15_ + 563 x_16_ + 150 x_17_ + 661 x_18_ + 58 x_19_ + 523 x_20_ + 885 x_21_ + 946 x_22_ + 125 x_23_ + 544 x_24_ + 318 x_25_ + 593 x_26_ + 647 x_27_ + 299 x_28_ + 47 x_29_ + 898 x_30_ + 462 x_31_ + 502 x_32_ + 572 x_33_ + 556 x_34_ + 361 x_35_ + 385 x_36_ + 464 x_37_ + 105 x_38_ + 533 x_39_ + 83 x_40_ + 1 x_41_ + 112 x_42_ + 323 x_43_ + 14 x_44_ + 581 x_45_ + 291 x_46_ + 159 x_47_ + 108 x_48_ + 702 x_49_ + 454 x_50_ + 251 x_51_ + 385 x_52_ + 537 x_53_ + 337 x_54_ + 675 x_55_ + 787 x_56_ + 970 x_57_ + 822 x_58_ + 528 x_59_ + 782 x_60_ + 29 x_61_ + 81 x_62_ + 430 x_63_ + 957 x_64_ + 599 x_65_ + 52 x_66_ + 314 x_67_ + 180 x_68_ + 877 x_69_ + 28 x_70_ + 115 x_71_ + 483 x_72_ + 451 x_73_ + 434 x_74_ + 494 x_75_ + 849 x_76_ + 212 x_77_ + 520 x_78_ + 178 x_79_ + 354 x_80_ + 251 x_81_ + 72 x_82_ + 770 x_83_ + 806 x_84_ + 580 x_85_ + 97 x_86_ + 80 x_87_ + 821 x_88_ + 379 x_89_ + 635 x_90_ + 508 x_91_ + 988 x_92_ + 748 x_93_ + 542 x_94_ + 41 x_95_ + 451 x_96_ + 87 x_97_ + 107 x_98_ + 658 x_99_ + 636 x_100_ + 426 x_101_ + 284 x_102_ + 7 x_103_ + 605 x_104_ + 904 x_105_ + 430 x_106_ + 266 x_107_ + 349 x_108_ + 984 x_109_ + 519 x_110_ + 726 x_111_ + 815 x_112_ + 953 x_113_ + 420 x_114_ + 971 x_115_ + 419 x_116_ + 875 x_117_ + 335 x_118_ + 294 x_119_ + 549 x_120_ + 122 x_121_ + 664 x_122_ + 792 x_123_ + 462 x_124_ + 248 x_125_ + 751 x_126_ + 108 x_127_ + 305 x_128_ + 153 x_129_ + 428 x_130_ + 170 x_131_ + 769 x_132_ + 64 x_133_ + 554 x_134_ + 720 x_135_ + 618 x_136_ + 476 x_137_ + 25 x_138_ + 705 x_139_ + 986 x_140_ + 478 x_141_ + 400 x_142_ + 37 x_143_ + 591 x_144_ + 387 x_145_ + 925 x_146_ + 960 x_147_ + 838 x_148_ + 10 x_149_ + 361 x_150_ + 756 x_151_ + 82 x_152_ + 824 x_153_ + 368 x_154_ + 784 x_155_ + 894 x_156_ + 505 x_157_ + 458 x_158_ + 976 x_159_ + 70 x_160_ + 387 x_161_ + 21 x_162_ + 91 x_163_ + 76 x_164_ + 573 x_165_ + 664 x_166_ + 956 x_167_ + 522 x_168_ + 667 x_169_ + 546 x_170_ + 424 x_171_ + 891 x_172_ + 963 x_173_ + 202 x_174_ + 85 x_175_ + 764 x_176_ + 906 x_177_ + 368 x_178_ + 896 x_179_ + 607 x_180_ + 218 x_181_ + 38 x_182_ + 989 x_183_ + 312 x_184_ + 573 x_185_ + 49 x_186_ + 253 x_187_ + 762 x_188_ + 265 x_189_ + 731 x_190_ + 820 x_191_ + 155 x_192_ + 966 x_193_ + 269 x_194_ + 934 x_195_ + 932 x_196_ + 477 x_197_ + 359 x_198_ + 979 x_199_ + 357 x_200_ + 421 x_201_ + 992 x_202_ + 117 x_203_ + 734 x_204_ + 569 x_205_ + 778 x_206_ + 590 x_207_ + 872 x_208_ + 826 x_209_ + 748 x_210_ + 676 x_211_ + 881 x_212_ + 691 x_213_ + 728 x_214_ + 529 x_215_ + 821 x_216_ + 923 x_217_ + 169 x_218_ + 803 x_219_ + 896 x_220_ + 224 x_221_ + 217 x_222_ + 570 x_223_ + 13 x_224_ + 59 x_225_ + 202 x_226_ + 935 x_227_ + 837 x_228_ + 38 x_229_ + 124 x_230_ + 719 x_231_ + 660 x_232_ + 114 x_233_ + 745 x_234_ + 903 x_235_ + 746 x_236_ + 579 x_237_ + 69 x_238_ + 852 x_239_ + 489 x_240_ + 54 x_241_ + 182 x_242_ + 599 x_243_ + 740 x_244_ + 233 x_245_ + 935 x_246_ + 414 x_247_ + 447 x_248_ + 576 x_249_ + 960 x_250_ >= 61898
Bounds
s_1_ <= 0
s_2_ <= 0
s_3_ <= 0
s_4_ <= 0
s_5_ <= 0
ss_1_ >= 0
ss_2_ >= 0
ss_3_ >= 0
ss_4_ >= 0
ss_5_ >= 0
Binary
x_1_
x_2_
x_3_
x_4_
x_5_
x_6_
x_7_
x_8_
x_9_
x_10_
x_11_
x_12_
x_13_
x_14_
x_15_
x_16_
x_17_
x_18_
x_19_
x_20_
x_21_
x_22_
x_23_
x_24_
x_25_
x_26_
x_27_
x_28_
x_29_
x_30_
x_31_
x_32_
x_33_
x_34_
x_35_
x_36_
x_37_
x_38_
x_39_
x_40_
x_41_
x_42_
x_43_
x_44_
x_45_
x_46_
x_47_
x_48_
x_49_
x_50_
x_51_
x_52_
x_53_
x_54_
x_55_
x_56_
x_57_
x_58_
x_59_
x_60_
x_61_
x_62_
x_63_
x_64_
x_65_
x_66_
x_67_
x_68_
x_69_
x_70_
x_71_
x_72_
x_73_
x_74_
x_75_
x_76_
x_77_
x_78_
x_79_
x_80_
x_81_
x_82_
x_83_
x_84_
x_85_
x_86_
x_87_
x_88_
x_89_
x_90_
x_91_
x_92_
x_93_
x_94_
x_95_
x_96_
x_97_
x_98_
x_99_
x_100_
x_101_
x_102_
x_103_
x_104_
x_105_
x_106_
x_107_
x_108_
x_109_
x_110_
x_111_
x_112_
x_113_
x_114_
x_115_
x_116_
x_117_
x_118_
x_119_
x_120_
x_121_
x_122_
x_123_
x_124_
x_125_
x_126_
x_127_
x_128_
x_129_
x_130_
x_131_
x_132_
x_133_
x_134_
x_135_
x_136_
x_137_
x_138_
x_139_
x_140_
x_141_
x_142_
x_143_
x_144_
x_145_
x_146_
x_147_
x_148_
x_149_
x_150_
x_151_
x_152_
x_153_
x_154_
x_155_
x_156_
x_157_
x_158_
x_159_
x_160_
x_161_
x_162_
x_163_
x_164_
x_165_
x_166_
x_167_
x_168_
x_169_
x_170_
x_171_
x_172_
x_173_
x_174_
x_175_
x_176_
x_177_
x_178_
x_179_
x_180_
x_181_
x_182_
x_183_
x_184_
x_185_
x_186_
x_187_
x_188_
x_189_
x_190_
x_191_
x_192_
x_193_
x_194_
x_195_
x_196_
x_197_
x_198_
x_199_
x_200_
x_201_
x_202_
x_203_
x_204_
x_205_
x_206_
x_207_
x_208_
x_209_
x_210_
x_211_
x_212_
x_213_
x_214_
x_215_
x_216_
x_217_
x_218_
x_219_
x_220_
x_221_
x_222_
x_223_
x_224_
x_225_
x_226_
x_227_
x_228_
x_229_
x_230_
x_231_
x_232_
x_233_
x_234_
x_235_
x_236_
x_237_
x_238_
x_239_
x_240_
x_241_
x_242_
x_243_
x_244_
x_245_
x_246_
x_247_
x_248_
x_249_
x_250_
End
